# Solution for model r3_t9_m0_9 Batch Number: 1
# Finished Task: 7 / 9
# Makespan: 502.0, Total Distance: 207.0, Total Time: 0.1958
# R O S F Batch
0 0 3 0.0 0.0 -1
1 1 9 0.0 0.0 -1
2 2 11 0.0 0.0 -1
3 0 7 381.0 411.0 0
4 1 -1 473.0 502.0 0
5 -1 -1 -1.0 -1.0 0
6 -1 -1 -1.0 -1.0 0
7 0 -1 447.0 473.0 0
8 1 4 249.0 275.0 0
9 1 8 133.0 171.0 0
10 2 -1 420.0 447.0 0
11 2 10 343.0 381.0 0
